\ENCODING=ISO-8859-1
\Problem name: IloCplex

Minimize
 obj1: x1 + 36.800003 x2 + 1
Subject To
 c1:  x1 + 5 x2 <= 99999
 c2:  x1 + 9.6 x2 >= 2.03
 c3:  x1 + 14.6 x2 <= 99999
 c4:  x1 + 12.6 x2 >= 6.5400004
 c5:  x1 + 17.6 x2 <= 99999
 c6:  x1 + 14.487237 x2 >= 6.6658162
 c7:  x1 + 19.487237 x2 <= 99999
 c8:  x1 + 17.312766 x2 >= 6.8541848
 c9:  x1 + 22.312766 x2 <= 99999
 c10: x1 + 19.200003 x2 >= 9.61333333333334
 c11: x1 + 24.200003 x2 <= 99999
 c12: x1 + 22.200003 x2 >= 9.81333333333333
 c13: x1 + 27.200003 x2 <= 99999
 c14: x1 + 31.800003 x2 >= 10.4533333333333
 c15: x1 + 36.800003 x2 <= 99999
Bounds
 1.39 <= x1 <= 100000
 0.0666666666666667 <= x2 <= 0.333333333333333
End
